0,45,41,21,86,65,30,97,54,71,33,57,61
45,0,21,15,4,94,68,53,0,39,97,32,93
41,21,0,90,57,37,94,79,93,98,84,38,91
21,15,90,0,5,24,56,88,21,10,59,6,67
86,4,57,5,0,72,27,82,77,73,2,82,73
65,94,37,24,72,0,93,80,57,39,22,15,76
30,68,94,56,27,93,0,68,46,69,18,30,7
97,53,79,88,82,80,68,0,9,87,83,65,75
54,0,93,21,77,57,46,9,0,56,27,87,62
71,39,98,10,73,39,69,87,56,0,94,11,41
33,97,84,59,2,22,18,83,27,94,0,28,88
57,32,38,6,82,15,30,65,87,11,28,0,14
61,93,91,67,73,76,7,75,62,41,88,14,0
